
===== New CPLEX run =====
Instance: /home/yorig/tuner/mpils-tests/instances/miplib/easy/lotsize.mps
Config: /scratch/yorig/mpils-results-grid-seconds-5-watchdog/easy/24proc/seed-5/4_lotsize_seed-5_20260504_011421/expansion/config_param_CPXPARAM_Simplex_DGradient_2_iter_2.prm
========================

Selected objective sense:  MINIMIZE
Selected objective  name:  R1921
Selected RHS        name:  B
Selected bound      name:  BOUND
Wall watchdog: enabled factor=1 grace=1 limit=6 seconds
Version identifier: 22.1.2.0 | 2024-11-26 | 0edbb82fd
CPXPARAM_Simplex_DGradient                       2
CPXPARAM_Threads                                 8
CPXPARAM_Parallel                                1
CPXPARAM_MIP_Cuts_Cliques                        -1
CPXPARAM_MIP_Cuts_Covers                         -1
CPXPARAM_MIP_Cuts_Implied                        1
CPXPARAM_MIP_Limits_GomoryCand                   25
CPXPARAM_MIP_Cuts_Gomory                         1
CPXPARAM_MIP_Cuts_PathCut                        2
CPXPARAM_MIP_Cuts_Disjunctive                    -1
CPXPARAM_Emphasis_MIP                            1
CPXPARAM_TimeLimit                               5
Tried aggregator 1 time.
MIP Presolve eliminated 595 rows and 0 columns.
MIP Presolve added 1190 rows and 0 columns.
MIP Presolve modified 10 coefficients.
Reduced MIP has 2515 rows, 2985 columns, and 7755 nonzeros.
Reduced MIP has 1195 binaries, 0 generals, 0 SOSs, and 0 indicators.
Presolve time = 0.00 sec. (4.53 ticks)
Probing fixed 0 vars, tightened 5487 bounds.
Probing time = 0.01 sec. (18.38 ticks)
Tried aggregator 2 times.
Detecting symmetries...
MIP Presolve modified 1206 coefficients.
Aggregator did 10 substitutions.
Reduced MIP has 2505 rows, 2975 columns, and 7735 nonzeros.
Reduced MIP has 1195 binaries, 0 generals, 0 SOSs, and 0 indicators.
Presolve time = 0.00 sec. (6.66 ticks)
Probing fixed 0 vars, tightened 2401 bounds.
Probing time = 0.00 sec. (6.41 ticks)
Clique table members: 190.
MIP emphasis: integer feasibility.
MIP search method: dynamic search.
Parallel mode: deterministic, using up to 8 threads.
Root relaxation solution time = 0.01 sec. (9.71 ticks)

        Nodes                                         Cuts/
   Node  Left     Objective  IInf  Best Integer    Best Bound    ItCnt     Gap

      0     0   348385.3466   472                 348385.3466      882         
      0     0   572993.6826   462                   Cuts: 726     1894         
      0     0   804826.2087   708                   Cuts: 726     2778         
      0     0   948430.3141   703                   Cuts: 726     3536         
*     0+    0                       1.01740e+07   948430.3141            90.68%
*     0+    0                      7973370.0000   948430.3141            88.11%
Detecting symmetries...
      0     2   948430.3141   703  7973370.0000   948430.3141     3536   88.11%
Elapsed time = 0.33 sec. (482.97 ticks, tree = 0.02 MB, solutions = 2)
    193   154   986678.3144   766  7973370.0000   948796.4085     8447   88.10%
    682   577  1017478.9100   669  7973370.0000   948796.4085    12465   88.10%
   1179  1093  1175648.7129   483  7973370.0000   948796.4085    18397   88.10%
   1704  1546  1211817.4451   399  7973370.0000   948796.4085    22301   88.10%

Performing restart 1

Repeating presolve.
Tried aggregator 1 time.
MIP Presolve modified 1154 coefficients.
Reduced MIP has 2505 rows, 2975 columns, and 7735 nonzeros.
Reduced MIP has 1195 binaries, 0 generals, 0 SOSs, and 0 indicators.
Presolve time = 0.00 sec. (3.78 ticks)
Tried aggregator 1 time.
MIP Presolve modified 1013 coefficients.
Reduced MIP has 2505 rows, 2975 columns, and 7735 nonzeros.
Reduced MIP has 1195 binaries, 0 generals, 0 SOSs, and 0 indicators.
Presolve time = 0.00 sec. (5.12 ticks)
Represolve time = 0.02 sec. (18.33 ticks)
   1717     0  1098306.1073   747  7973370.0000     Cuts: 726    28204   86.23%
   1717     0  1181873.6209   721  7973370.0000     Cuts: 726    29002   85.18%
   1717     0  1251760.0340   741  7973370.0000     Cuts: 726    29759   84.30%
   1717     2  1251760.0340   741  7973370.0000  1253707.9442    29759   84.28%
   1737    22  1270499.2713   654  7973370.0000  1253707.9442    30237   84.28%
   1757    42  1280611.4904   608  7973370.0000  1253707.9442    30561   84.28%
   1773    50  1327092.5144   715  7973370.0000  1253707.9442    31604   84.28%
   1781    59  1337930.6532   713  7973370.0000  1253707.9442    34199   84.28%
   2086   200  1371165.1547   599  7973370.0000  1262536.5925    55183   84.17%
Elapsed time = 3.56 sec. (5091.20 ticks, tree = 3.88 MB, solutions = 2)
   2834   956  1464957.7574   494  7973370.0000  1262536.5925    83334   84.17%
*  3780+ 1712                      5463907.0000  1264162.8856            76.86%
*  3795+ 1712                      5214975.0000  1264162.8856            75.76%
*  3815+ 1712                      3196792.0000  1264162.8856            60.46%
*  3841+ 1712                      2965786.0000  1264162.8856            57.38%
*  3856+ 1712                      2915060.0000  1264162.8856            56.63%
*  3875+ 1519                      2828997.0000  1264162.8856            55.31%
*  4047+ 1992                      2779344.0000  1264162.8856            54.52%
*  4053+ 1992                      2623202.0000  1264162.8856            51.81%
*  4061+ 1992                      2607860.0000  1264162.8856            51.52%
*  4175+ 2173                      2578046.0000  1264162.8856            50.96%
*  4180+ 2173                      2546130.0000  1264162.8856            50.35%
*  4278+ 2344                      1838053.0000  1264162.8856            31.22%
   4320  2320  1748594.1046    40  1838053.0000  1264162.8856   115786   31.22%
*  4331  2333      integral     0  1739263.0000  1264162.8856   116582   27.32%

Implied bound cuts applied:  12
Flow cuts applied:  573
Mixed integer rounding cuts applied:  1050
Flow path cuts applied:  137
Multi commodity flow cuts applied:  21
Lift and project cuts applied:  5
Gomory fractional cuts applied:  1

Root node processing (before b&c):
  Real time             =    0.33 sec. (481.21 ticks)
Parallel b&c, 8 threads:
  Real time             =    4.68 sec. (6703.66 ticks)
  Sync time (average)   =    0.27 sec.
  Wait time (average)   =    0.00 sec.
                          ------------
Total (root+branch&cut) =    5.00 sec. (7184.87 ticks)
Gap: 27.32%
Upper bound: 1.73926e+06
Lower bound: 1.26416e+06
Termination status: Normal
End of CPLEX run. Time: 5.00567 seconds
